# Objective value = 28
WA1n 0
WA1p 0
WA2n 0
WA2p 1
WB1n 0
WB1p 0
WB2n 0
WB2p 1
WC1n 0
WC1p 0
WC2n 0
WC2p 1
WD1n 0
WD1p 1
WE1n 0
WE1p 1
WF1n 0
WF1p 2
WG1n 4
WG1p 0
WH1n 0
WH1p 4
WI1n 10
WI1p 0
WT1n 0
WT1p 0
5 7
a 0
b 1
c 0
d 1
e 0
f 1
g 1
h 1
i 1
j 0
k 1
l 0
m 0
